Version identifier: 20.1.0.0 | 2020-11-10 | 9bedb6d68
Tried aggregator 3 times.
MIP Presolve eliminated 1895 rows and 993 columns.
MIP Presolve modified 4694 coefficients.
Aggregator did 183 substitutions.
Reduced MIP has 2731 rows, 2139 columns, and 8966 nonzeros.
Reduced MIP has 413 binaries, 1726 generals, 0 SOSs, and 0 indicators.
Presolve time = 0.03 sec. (12.44 ticks)
Probing fixed 60 vars, tightened 756 bounds.
Probing time = 0.00 sec. (1.98 ticks)
Tried aggregator 2 times.
Detecting symmetries...
MIP Presolve eliminated 1172 rows and 126 columns.
MIP Presolve modified 223 coefficients.
Aggregator did 30 substitutions.
Reduced MIP has 1529 rows, 1983 columns, and 4966 nonzeros.
Reduced MIP has 667 binaries, 1316 generals, 0 SOSs, and 0 indicators.
Presolve time = 0.02 sec. (7.30 ticks)
Probing time = 0.00 sec. (0.42 ticks)
Clique table members: 5.
MIP emphasis: balance optimality and feasibility.
MIP search method: dynamic search.
Parallel mode: deterministic, using up to 24 threads.
Root relaxation solution time = 0.02 sec. (4.16 ticks)

        Nodes                                         Cuts/
   Node  Left     Objective  IInf  Best Integer    Best Bound    ItCnt     Gap

      0     0        0.0000    77                      0.0000      391         
      0     0        0.0000   105                   Cuts: 163      513         
*     0+    0                           26.0000        0.0000           100.00%
*     0+    0                           17.0000        0.0000           100.00%
      0     0        0.0000    98       17.0000      Cuts: 94      692  100.00%
      0     0        0.0000    71       17.0000      Cuts: 85     1053  100.00%
      0     0        0.0000    74       17.0000      Cuts: 67     1311  100.00%
*     0+    0                           16.0000        0.0000           100.00%
*     0+    0                           15.0000        0.0000           100.00%
      0     0        cutoff             15.0000       15.0000     1311    0.00%
Elapsed time = 0.80 sec. (238.43 ticks, tree = 0.01 MB, solutions = 4)

Implied bound cuts applied:  57
Flow cuts applied:  8
Mixed integer rounding cuts applied:  12
Zero-half cuts applied:  121
Lift and project cuts applied:  6
Gomory fractional cuts applied:  30

Root node processing (before b&c):
  Real time             =    0.80 sec. (238.62 ticks)
Parallel b&c, 24 threads:
  Real time             =    0.00 sec. (0.00 ticks)
  Sync time (average)   =    0.00 sec.
  Wait time (average)   =    0.00 sec.
                          ------------
Total (root+branch&cut) =    0.80 sec. (238.62 ticks)

Solution status = Optimal
Solution LB = 15
Solution UB = 15
Runtime = 0.805839 seconds
	Command being timed: "/home/min/git_repos/CS598MEBProject/CNT-ILP/build/cnt -s 2 ./output/k8_n30/simC_c1_k8_n30_u3_s3_del04.input-left.cnp"
	User time (seconds): 9.70
	System time (seconds): 0.09
	Percent of CPU this job got: 1134%
	Elapsed (wall clock) time (h:mm:ss or m:ss): 0:00.86
	Average shared text size (kbytes): 0
	Average unshared data size (kbytes): 0
	Average stack size (kbytes): 0
	Average total size (kbytes): 0
	Maximum resident set size (kbytes): 136496
	Average resident set size (kbytes): 0
	Major (requiring I/O) page faults: 0
	Minor (reclaiming a frame) page faults: 32416
	Voluntary context switches: 3952
	Involuntary context switches: 1161
	Swaps: 0
	File system inputs: 0
	File system outputs: 16
	Socket messages sent: 0
	Socket messages received: 0
	Signals delivered: 0
	Page size (bytes): 4096
	Exit status: 0
